solution status: optimal solution found
objective value:                                   34
thingy.thingy.chamber[1].first.vinlet_y                   17 	(obj:0)
thingy.thingy.chamber[1].first.vinlet_z                   12 	(obj:0)
thingy.thingy.chamber[1].first.vbead_y                   17 	(obj:0)
thingy.thingy.chamber[1].first.vbead_z                   14 	(obj:0)
thingy.thingy.chamber[2].first.vinlet_y                   17 	(obj:0)
thingy.thingy.chamber[2].first.vinlet_z                   11 	(obj:0)
thingy.thingy.chamber[3].first.vinlet_y                   16 	(obj:0)
thingy.thingy.chamber[3].first.vinlet_z                   11 	(obj:0)
thingy.thingy.vinlet.valves[2].vinlet_y                   16 	(obj:0)
thingy.thingy.vinlet.valves[2].vinlet_z                   16 	(obj:0)
thingy.thingy.chamber[2].first.vbead_y                   18 	(obj:0)
thingy.thingy.chamber[2].first.vbead_z                   13 	(obj:0)
thingy.thingy.vinlet.valves[4].vinlet_y                   14 	(obj:0)
thingy.thingy.vinlet.valves[4].vinlet_z                   16 	(obj:0)
thingy.thingy.vinlet.valves[3].vinlet_y                   16 	(obj:0)
thingy.thingy.vinlet.valves[3].vinlet_z                   14 	(obj:0)
thingy.thingy.vinlet.valves[1].vinlet_y                   15 	(obj:0)
thingy.thingy.vinlet.valves[1].vinlet_z                   14 	(obj:0)
thingy.thingy.chamber[3].first.vbead_y                   17 	(obj:0)
thingy.thingy.chamber[3].first.vbead_z                   13 	(obj:0)
thingy.thingy.chamber[0].first.vbead_y                   18 	(obj:0)
thingy.thingy.chamber[0].first.vbead_z                   16 	(obj:0)
thingy.thingy.chamber[0].first.vinlet_y                   16 	(obj:0)
thingy.thingy.chamber[0].first.vinlet_z                   13 	(obj:0)
thingy.thingy.vinlet.valves[0].vinlet_y                   15 	(obj:0)
thingy.thingy.vinlet.valves[0].vinlet_z                   16 	(obj:0)
x31                                                 2 	(obj:1)
x37                                                 2 	(obj:1)
x40                                                 1 	(obj:1)
x43                                                 2 	(obj:1)
x49                                                 2 	(obj:1)
x50                                                 2 	(obj:1)
x51                                                 2 	(obj:1)
x54                                                 2 	(obj:1)
x59                                                 1 	(obj:1)
x61                                                 1 	(obj:1)
x67                                                 2 	(obj:1)
x71                                                 1 	(obj:1)
x74                                                 2 	(obj:1)
x77                                                 1 	(obj:1)
x79                                                 1 	(obj:1)
x80                                                 2 	(obj:1)
x85                                                 1 	(obj:1)
x89                                                 1 	(obj:1)
x97                                                 2 	(obj:1)
x98                                                 2 	(obj:1)
x99                                                 1 	(obj:1)
x103                                                1 	(obj:1)
